181 300 172 198 188 152 162 186 171 158 161 155 166 174 200 168 190 200 162 168 169 158 157 154 156 194 178 193 185 188 161 164 176 183 161 189 159 198 199 155 156 159 185 197 157 184 164 198 183 150 190 176 159 197 181 190 164 158 182 173 196 167 187 196 174 198 184 184 196 183 189 176 166 173 172 174 156 187 196 163 187 185 189 170 155 169 160 170 177 166 167 172 184 154 168 157 176 176 191 196 183 153 171 174 150 194 198 181 180 167 194 191 151 183 161 156 176 196 150 178 186 168 174 169 172 166 151 172 193 166 168 200 170 189 173 195 182 195 176 186 161 169 151 187 176 187 194 177 182 168 154 167 186 178 161 182 195 187 179 161 152 197 160 197 159 158 192 166 152 167 151 164 160 152 175 161 189 193 188 195 161 166 187 